NAME          DCAP_3_4_2_500_SS468
ROWS
 N  OBJ
 L  CON1
 L  CON2
 L  CON3
 L  CON4
 L  CON5
 L  CON6
 L  CON7
 L  CON8
 L  CON9
 L  CON10
 L  CON11
 L  CON12
 E  CON13
 E  CON14
 E  CON15
 E  CON16
 E  CON17
 E  CON18
 E  CON19
 E  CON20
COLUMNS
    x[1,1]    OBJ       6.180167      CON1      1.000000    
    x[1,1]    CON7      -1.000000     CON8      -1.000000   
    x[1,2]    OBJ       5.039546      CON2      1.000000    
    x[1,2]    CON8      -1.000000   
    x[2,1]    OBJ       6.732585      CON3      1.000000    
    x[2,1]    CON9      -1.000000     CON10     -1.000000   
    x[2,2]    OBJ       7.443064      CON4      1.000000    
    x[2,2]    CON10     -1.000000   
    x[3,1]    OBJ       6.563535      CON5      1.000000    
    x[3,1]    CON11     -1.000000     CON12     -1.000000   
    x[3,2]    OBJ       6.054841      CON6      1.000000    
    x[3,2]    CON12     -1.000000   
    MARKER    'MARKER'                'INTORG'
    u[1,1]    OBJ       48.076654     CON1      -1.000000   
    u[1,2]    OBJ       49.466655     CON2      -1.000000   
    u[2,1]    OBJ       49.996186     CON3      -1.000000   
    u[2,2]    OBJ       32.230043     CON4      -1.000000   
    u[3,1]    OBJ       20.066487     CON5      -1.000000   
    u[3,2]    OBJ       27.484319     CON6      -1.000000   
    y[1,1,1]  OBJ       6.237892      CON7      1.106469    
    y[1,1,1]  CON13     1.000000    
    y[1,1,2]  OBJ       7.284121      CON8      1.009896    
    y[1,1,2]  CON14     1.000000    
    y[1,2,1]  OBJ       6.792426      CON7      1.276521    
    y[1,2,1]  CON15     1.000000    
    y[1,2,2]  OBJ       6.793596      CON8      1.468220    
    y[1,2,2]  CON16     1.000000    
    y[1,3,1]  OBJ       9.363776      CON7      1.357500    
    y[1,3,1]  CON17     1.000000    
    y[1,3,2]  OBJ       7.827917      CON8      1.331476    
    y[1,3,2]  CON18     1.000000    
    y[1,4,1]  OBJ       8.701207      CON7      1.145840    
    y[1,4,1]  CON19     1.000000    
    y[1,4,2]  OBJ       5.959751      CON8      0.958041    
    y[1,4,2]  CON20     1.000000    
    y[2,1,1]  OBJ       9.711841      CON9      1.106469    
    y[2,1,1]  CON13     1.000000    
    y[2,1,2]  OBJ       6.398282      CON10     1.009896    
    y[2,1,2]  CON14     1.000000    
    y[2,2,1]  OBJ       8.585383      CON9      1.276521    
    y[2,2,1]  CON15     1.000000    
    y[2,2,2]  OBJ       7.778057      CON10     1.468220    
    y[2,2,2]  CON16     1.000000    
    y[2,3,1]  OBJ       6.271441      CON9      1.357500    
    y[2,3,1]  CON17     1.000000    
    y[2,3,2]  OBJ       9.896851      CON10     1.331476    
    y[2,3,2]  CON18     1.000000    
    y[2,4,1]  OBJ       8.064774      CON9      1.145840    
    y[2,4,1]  CON19     1.000000    
    y[2,4,2]  OBJ       6.646969      CON10     0.958041    
    y[2,4,2]  CON20     1.000000    
    y[3,1,1]  OBJ       8.959096      CON11     1.106469    
    y[3,1,1]  CON13     1.000000    
    y[3,1,2]  OBJ       7.960379      CON12     1.009896    
    y[3,1,2]  CON14     1.000000    
    y[3,2,1]  OBJ       9.792004      CON11     1.276521    
    y[3,2,1]  CON15     1.000000    
    y[3,2,2]  OBJ       7.184789      CON12     1.468220    
    y[3,2,2]  CON16     1.000000    
    y[3,3,1]  OBJ       8.802556      CON11     1.357500    
    y[3,3,1]  CON17     1.000000    
    y[3,3,2]  OBJ       5.905492      CON12     1.331476    
    y[3,3,2]  CON18     1.000000    
    y[3,4,1]  OBJ       6.677076      CON11     1.145840    
    y[3,4,1]  CON19     1.000000    
    y[3,4,2]  OBJ       7.796119      CON12     0.958041    
    y[3,4,2]  CON20     1.000000    
    z[1,1]    OBJ       746.307388    CON13     1.000000    
    z[1,2]    OBJ       550.551023    CON14     1.000000    
    z[2,1]    OBJ       714.162262    CON15     1.000000    
    z[2,2]    OBJ       916.296674    CON16     1.000000    
    z[3,1]    OBJ       783.574359    CON17     1.000000    
    z[3,2]    OBJ       871.767320    CON18     1.000000    
    z[4,1]    OBJ       521.579247    CON19     1.000000    
    z[4,2]    OBJ       898.196621    CON20     1.000000    
    MARKER    'MARKER'                 'INTEND'
RHS
    RHS       CON1      -0.000000     CON2      -0.000000   
    RHS       CON3      -0.000000     CON4      -0.000000   
    RHS       CON5      -0.000000     CON6      -0.000000   
    RHS       CON7      -0.000000     CON8      -0.000000   
    RHS       CON9      -0.000000     CON10     -0.000000   
    RHS       CON11     -0.000000     CON12     -0.000000   
    RHS       CON13     1.000000      CON14     1.000000    
    RHS       CON15     1.000000      CON16     1.000000    
    RHS       CON17     1.000000      CON18     1.000000    
    RHS       CON19     1.000000      CON20     1.000000    
BOUNDS
 BV BOUND     u[1,1]  
 BV BOUND     u[1,2]  
 BV BOUND     u[2,1]  
 BV BOUND     u[2,2]  
 BV BOUND     u[3,1]  
 BV BOUND     u[3,2]  
 BV BOUND     y[1,1,1]
 BV BOUND     y[1,1,2]
 BV BOUND     y[1,2,1]
 BV BOUND     y[1,2,2]
 BV BOUND     y[1,3,1]
 BV BOUND     y[1,3,2]
 BV BOUND     y[1,4,1]
 BV BOUND     y[1,4,2]
 BV BOUND     y[2,1,1]
 BV BOUND     y[2,1,2]
 BV BOUND     y[2,2,1]
 BV BOUND     y[2,2,2]
 BV BOUND     y[2,3,1]
 BV BOUND     y[2,3,2]
 BV BOUND     y[2,4,1]
 BV BOUND     y[2,4,2]
 BV BOUND     y[3,1,1]
 BV BOUND     y[3,1,2]
 BV BOUND     y[3,2,1]
 BV BOUND     y[3,2,2]
 BV BOUND     y[3,3,1]
 BV BOUND     y[3,3,2]
 BV BOUND     y[3,4,1]
 BV BOUND     y[3,4,2]
 BV BOUND     z[1,1]  
 BV BOUND     z[1,2]  
 BV BOUND     z[2,1]  
 BV BOUND     z[2,2]  
 BV BOUND     z[3,1]  
 BV BOUND     z[3,2]  
 BV BOUND     z[4,1]  
 BV BOUND     z[4,2]  
ENDATA
